2000
Lattice="37.69961889 0.0 0.0 0.0 37.69961889 0.0 0.0 0.0 37.69961889" Properties=species:S:1:pos:R:3 pbc="T T T"
As      30.04007956      34.16591283      22.29579732
As      26.82909362       9.01018244      11.41866646
As      32.11207527      24.49261579      25.11979162
As      32.25942189       9.20194390      21.28908670
As       9.19000496       6.95980930      21.09525389
As      36.55719082      12.37248494      21.93284316
As      18.22148863       1.95567299       8.98793443
As       7.69347004      25.48858267      14.10784502
As      14.08509149      22.92570244      17.01405710
As      33.37591745       1.46646225      13.06389379
As      18.17003238       3.86895180       1.74701336
As      20.29481898      31.46224401      14.29918391
As      15.89317236      21.82545675       0.14183052
As      10.89623068      20.17768749      29.84665553
As       6.16750157       4.07704544      17.48000609
As      10.20117700      19.66869396      20.44554258
As       6.23618485      22.22330921      34.72693384
As      25.58127979      29.05271324       7.08928551
As      29.62996266      31.34746590      16.70556414
As      17.35509672      33.84472585      13.91620939
As      10.22905808      30.84737453       0.12578914
As       8.51667767      17.95612678      11.13638012
As      33.64019537      31.31604465      13.54617898
As      17.60426214       5.49482184      25.91737942
As      28.89203465      12.92470358      19.17870521
As      22.53371657       4.52627647      30.91679773
As      34.61495086      23.27355787      16.99653710
As      30.56188743      25.51378971      10.35146714
As      22.39522712       1.98271512      31.17013100
As      37.12245889       5.33205788      32.73843030
As      31.18100107      23.10727705       3.82455597
As      29.74899039       7.73980389       9.07954097
As      37.22297128       6.97467199      23.53573871
As      10.95448655      20.70494947      16.99140387
As      25.33908637      36.38079156       6.72953299
As      34.61922800       7.62998342      17.10027168
As      21.75481981       8.92929402      19.77766975
As      33.23481403      10.31424678       5.29300968
As       9.02274406       2.17397220      28.06419363
As      17.36733737      23.91647999       5.06357007
As       8.30262664       7.36711447       2.18180699
As       3.97780411      18.79349378      20.63545709
As      16.10601162      21.86596323      16.23263436
As      16.24775771      20.31197874      18.22577155
As      19.69135798      11.49073672       3.62804776
As       4.57902761      12.67913089       7.95724603
As       6.15571841       2.78866786       8.85095214
As      11.21802904      27.21493650       5.83246330
As      14.24780039       4.44928397      36.43049386
As       8.42016455       9.27514338      28.55001777
As      27.85547530      15.00960825       0.90356537
As       7.82758112      17.92589872       2.43979816
As       8.23044325      37.59505487      25.53045019
As      34.07829455      13.87949673      25.92261487
As       0.43962452      12.67291075       2.88938973
As      13.54210687      20.91216020      13.89448113
As       6.05725057       9.30841131      12.37313271
As      14.57502851      27.72057821      36.19867767
As      23.13360176      18.48071612      32.41217848
As      31.30130802      30.59776344      18.42635856
As      31.44288088      31.81709447      24.22030838
As      34.15187885      33.48116821      21.53654619
As      18.17796223       0.87535418      34.65809412
As      18.05379366      13.03361088      28.39241634
As      37.69383334      32.86165514       0.79862049
As       1.56660802      17.57193972      17.26766480
As      14.60017649      13.20760844      26.17051695
As      24.80746195      21.70394600      13.29228629
As      26.82229861       4.69897612      18.82173272
As       1.69654662       3.58049265      37.31082297
As      11.56060562      35.62413601       4.22112109
As      14.76637355      32.60731063      34.90626185
As      21.35685052      33.27530833      24.83388351
As      24.01677721      37.28633481      19.00144468
As      29.16978527      15.24773590      32.05834463
As      34.85874097       2.21157076      19.76889061
As       8.76178127       7.78522858      30.50202394
As       5.96824252      14.46121823      32.26083513
As       7.41966211      20.06529722      14.02109296
As      37.35643427      26.31825554      28.31044811
As      30.27275703      29.30534847       5.06429790
As      16.43835891      21.35463707       7.76113815
As       4.30243604       0.90961805       0.64858313
As      16.46355444       7.58570563      31.71263455
As       2.61884427       1.87014646      18.94379270
As      15.45250726      10.14330506      28.18501904
As      21.14822312       4.22026666      36.86334257
As      29.89442049      16.63994599       9.61788957
As      35.54066174       6.83207239      14.76058437
As      11.82982363       8.83797761       1.77453235
As       8.31487592      36.55303547       9.11029067
As      19.69051843       2.02460883       5.86396024
As      31.94466677      26.68028369      21.66086236
As      17.43019428       2.99644316      25.86558811
As      13.09143483       6.99284156      17.02319474
As      16.69734317      20.86381442      21.61077085
As      21.57912391      30.64081550      33.04747783
As       6.76611925      22.30342963      15.02065264
As      16.15269275      10.75861448      10.96548522
As       8.43017478      30.42690320       9.49287174
As      26.58902782      21.55562458       1.89821151
As       0.51565854      35.16219249      10.04354084
As      31.47571938      14.36507966      31.67383324
As       0.74971131       6.40627153      26.55190772
As      27.95629944      11.48207217       8.88814932
As      35.06345275      22.48204561      34.03167590
As      25.81449410       6.90205426       8.92141001
As      19.98045774      14.12335130      23.22355490
As      24.98179298       0.91882794      22.35839689
As      24.13917031       6.51843076      35.53945022
As       2.79608862      36.60148730      20.84841157
As      34.07829459      31.87807880      36.50787516
As       9.36566231      29.44599369      33.07332498
As       0.29233021       3.10558468      32.85642348
As       6.16103847      34.87767811       7.28942357
As       1.11866702      28.88081939      37.24914813
As      27.54192235      23.15213601       5.21091030
As      22.33719855      25.43426203      35.26429513
As      21.63958060      25.21864596      25.57663212
As      36.82327446      33.27413696      28.81972010
As       4.50967914       7.69781717      27.81938789
As      20.94105947      13.95791085      29.70958043
As      31.49627475      14.86433860       6.24636869
As      14.59708580      13.97847734      31.35922587
As      21.31853849       1.03564044      21.31214476
As      19.73550613      33.34718550       8.20630643
As      30.41465681      37.30356851      10.56173828
As      31.98291231      15.53719317      34.88637528
As      27.79385495      22.35279585      32.57757543
As      11.70587582      17.74886935      18.16823042
As      33.56428563      35.56699124      32.13486413
As      12.47796892      30.45308247      28.79486420
As      18.00532862      32.06479755       2.26609310
As      29.31304652       6.62637391      12.69013643
As      14.21534094      33.32157211      29.60329726
As      28.21540402      20.80272308       4.74847799
As      37.58835961       3.73990268      13.95049885
As      14.93189270       3.68638933      15.80612058
As       5.62323380      21.84780275       3.94178735
As      11.00394805       2.74063206      29.67388414
As       6.06426107       3.19868203      12.61538213
As      14.90627940       7.21553743      20.44707390
As       2.38867530      34.71887632      22.27728543
As      27.13119925       1.10480842      11.75228983
As      21.44595427       0.64180331      11.93663681
As      15.01848622       5.51141884      14.13122092
As      20.97184327      19.00803026       4.79985635
As      27.08678464      24.09801411      24.88874572
As      20.01428739      17.10522693      16.48201531
As      37.32648832      37.49230203      20.78964814
As      28.04087142      26.09176852      23.48280314
As      20.55015618      29.91932149       8.73717794
As       7.23635589      35.78875699      37.38690996
As       9.78620075       3.37610114      22.68736277
As      10.74417070       2.25570076      26.11539740
As       7.31664414      35.86670295      23.82189023
As      24.24952838       4.64349548      32.60987251
As       9.19410006      23.19894546      31.05858582
As      23.28515538       3.41409904       0.00077321
As      24.01312671      25.19386770       1.20539102
As      25.54878562      24.67866585      34.62969589
As       6.40209458      30.23675047      11.15532784
As      31.24698822       7.98896281       2.82321363
As      27.38601482      16.81383227       9.54429869
As      27.87104845       1.83982517      26.17823403
As      16.58053820      13.51934862      32.81963361
As       9.99946396      14.42530294       3.91980375
As      23.94048049       9.73888561      27.47946393
As      27.00649116      11.03468711       5.47399301
As      25.53118119      30.82551779      32.88809858
As       9.47825584      23.06562192      21.52798697
As      24.66751951      14.26373700      31.08298117
As      12.68542228       4.26658758      11.55702906
As      28.89199611      18.74248291      26.56771985
As      23.21429002       9.52297195      34.20402701
As      29.76202938       3.73670837       5.11787760
As      21.77304926      29.63199687      13.02689808
As      20.56528145       8.50364603       4.58873427
As      18.19969204       6.38631773      36.96724521
As      34.85595204      30.39691169      23.11583383
As       5.08819003      29.65084505       7.43633133
As      26.44519338      28.56008224      25.26550029
As      23.69736729      11.68197637      33.04643326
As      21.16309229      10.70147671      29.16162633
As      26.38324608      31.53766666      23.36454831
As      26.97462186      28.08061087       5.33667399
As       2.82805248       2.04832942      35.56761142
As      25.29901970      16.69319654      30.55115920
As      32.47084597       6.72234501       4.81183819
As       0.48061710      32.87416221      18.21287349
As      31.38233828      22.14963382      24.41671863
As      12.26186780       2.59079165      22.83471629
As       3.97129754      14.14227640      29.47456881
As      20.40719223      15.78319713       9.85712017
As      17.36278251      35.74737491       3.48020846
As      32.56577580      16.03168181      12.03684892
As      32.80574818      33.74560559      24.81191193
As      19.99807919      22.86388147      28.26763118
As       7.70633111      16.89381099       0.16984382
As      29.86256097      33.84325260      36.14159870
As      27.42991329      13.03476792      10.75010071
As       4.48138983      27.95100468       2.35424244
As      22.12184899       3.03550818      12.75735675
As      33.24430762      10.71342572      11.46495009
As      21.63594130      24.49434714      23.18515023
As       6.90075077      31.84274198      20.06545542
As       7.62646934       6.70792946      33.77980032
As      26.73910849      17.05835199      11.99408701
As      33.69805656      11.25992862      21.21291341
As      16.82866177      12.23099858      36.16092202
As      31.45527733      21.44912199      33.52894037
As      32.42264146      22.34521464       9.38621401
As      29.31085584      13.64407620      34.05277112
As      34.04114638      24.05788492      26.42066671
As      21.46575699      36.33782326       7.51326204
As      28.31039615      13.17746476      21.49925774
As      27.10319540      23.70110770      36.38432061
As      14.05756800      11.76060601      13.86131302
As       1.88121059      30.61832016      27.55073933
As      24.31488558      27.55560032      25.97716868
As      20.30400071      24.07397743       2.84349525
As      17.21101974      10.20133543      14.57302496
As      30.50205395      36.46211008       0.80701585
As       6.22831226      18.75476619      19.68266838
As       3.17251868       8.27740671      24.13460679
As      13.03829095      27.07113642      23.21481828
As      29.85204850      20.21509974       1.96777968
As      26.18486918      33.86357154      22.58558339
As      14.60152967      36.72877016      35.55533938
As      37.53676558       0.45739399      24.19633689
As      11.04189134      32.76662060      11.65269805
As       5.11818880      12.97378723      18.46216977
As      12.32810171       3.46839422       5.83199431
As      14.85126544      28.70728204      15.95945902
As       9.70456290      37.58819127      28.82867513
As      15.18846912       4.73442982      28.65800921
As      31.57249731      13.13647521      26.29186197
As       9.68521497       0.80327443       8.56783214
As      14.31515111      17.93443883      22.45050135
As      29.93131996       5.94170629      15.06956584
As      17.47730782       8.27863978      22.43458734
As      14.72548742      33.49756719       2.92130160
As      11.12656273      18.56951121      15.67872520
As      20.91766856      12.16830856       1.50645790
As      23.75091446      16.56479480      16.71154088
As       3.61078795      20.60983309      28.75733426
As      22.74007472      21.11328617      32.70318683
As      12.95721922      34.66848464      18.82297115
As      19.39143619      18.87676673      19.74501231
As      12.69201767      29.80946378      10.15786986
As       9.00751430      16.38395002      22.88069474
As      16.78893274      20.59856797      31.95729962
As      18.94755826       0.67597351      12.29840205
As      31.03370656      28.28609366      35.07728185
As       2.57011899      14.87780238      25.84974962
As       2.06251522      11.49090527       5.69705676
As       1.32417324       7.54324647      29.72376643
As      18.95657331       3.83136989      28.75452778
As      25.54710964      25.43818568      13.30983508
As      13.97940910       8.45457706       2.98376814
As       3.02945277      23.30115065      10.16426959
As       8.03871157       7.72493398       9.71256659
As      12.46687233      25.51700237      11.20345271
As       4.86431247      33.89366156      11.04477859
As      11.86080015      23.42177706      12.40745169
As      33.89259251       0.86269513      25.69981461
As       4.73083918       5.74021742      16.34145445
As      35.42436875       3.59801497       5.44741950
As      24.41270312       2.19128103      26.12873501
As      20.10911060       3.35935128      14.02676441
As       2.22487921      16.43145255      11.86214333
As      12.01263048      35.25201962      37.20118836
As      20.12632594      11.18744998      24.97936358
As      20.57426413       1.75391184       8.34129141
As      25.53987609       1.41684595      18.55077524
As      25.71106498      36.76138917      24.97243032
As      22.42318886      32.41226332      34.60767243
As       1.59927168       3.13264810      30.61088104
As      20.18473309      13.89070826      27.32816344
As      15.69719314      37.07891322      12.80558827
As      10.63281289       7.44332814       5.08084474
As      19.10550341       2.75625130      18.95878233
As       0.53268770       2.68601813      11.76114650
As       4.66682888      17.06696960       3.99147982
As      35.10999813      15.93920528      17.19638076
As      13.18755976       9.31244013       8.78428619
As      18.73541271       0.11870686       2.57296407
As       3.27885475      27.96940362      10.80595109
As      22.99565224      32.33882496      17.09051024
As      13.54067648      31.74781512      31.35514194
As      18.04656570       7.95854538      14.98984874
As      31.37976431       2.27202481      30.85664616
As      11.00293086      29.77240069       8.24321750
As      34.90711887       6.86519974       4.17984439
As       6.63808202       3.11705993       1.95599290
As      28.89548242       5.30661137       6.87162475
As       3.22031640      27.59741532      17.76794486
As       8.07401356       4.32934629       8.61754145
As       6.40423602      19.00949945      27.36152643
As      32.40043518      21.75963754      31.24594958
As      17.23727622      18.62886407      28.98815237
As      25.21666254      30.42517138      12.04123213
As      10.45238114      27.44119792       9.01939975
As      33.78673419      16.17643238      15.02174647
As      16.61130294      30.71891033      16.39001529
As      36.79588712      20.58182992      34.62635876
As       9.50108782      13.33015295      32.66957814
As       7.05519606      33.23396308      12.03639504
As      35.89311693      19.01242959      32.87798948
As      33.45459365      28.57808303       9.67847459
As      10.58971875       0.09290257      24.94058534
As      34.30127311      29.69545559      25.48234867
As      23.73636625      14.00408129      16.96151352
As      27.01532438      12.84181244      15.77450382
As       7.61607731      13.94930463      25.53790005
As      28.60000696      35.13613102       1.50980919
As       3.74491157       8.74991648       7.45215716
As      24.08405403      18.51203291      20.18887435
As      20.93450545      18.42262122      33.69775046
As      18.21649865      21.38345615       1.09207546
As       7.95450277      32.62213473      17.12010711
As      20.61029556      32.53347790      19.73742893
As       9.28061785      11.74935990      16.99159529
As      14.87686736      26.08207800      32.49904840
As       3.35428442      17.51562052      23.61755337
As      35.67341772       8.72146113       0.47872095
As      24.82169659      28.50953828       1.95654907
As      23.69368899      15.45646715       5.05059514
As      34.28127771      19.13136799      27.63515547
As       0.98534012       0.48365997      35.47671975
As      11.61733358      13.42886443       7.29056289
As       3.46985148      27.11167316      24.40115425
As      33.48571910      10.38617949      15.55359890
As       5.96889301      15.32798852      28.63186010
As      17.86645078      31.29290634      13.58944643
As      13.04310145       7.99927568       5.22438823
As      21.68319088      14.95665222      19.72659711
As      10.10373006      13.50803553      18.46952222
As      29.63459926      26.35018292      35.84707356
As      16.56062389      14.66055352      36.95144084
As      10.75273355      15.63201995      35.74920596
As      18.45861865      31.09857971       8.08236572
As      15.49431383      30.32735828      33.93274541
As      36.37816845      26.39006759      34.88430094
As       8.96896711       0.01514748      18.88486379
As      11.87449813       5.27554281      27.01162707
As       2.14803578      30.86408837      15.46105709
As       4.08672089      29.08620316      31.51289888
As      30.46798504      36.29137129      30.30876455
As      13.33018838      32.62430463       6.14186650
As      15.43818915      13.43344895       7.96582013
As      13.50400645      12.76795408       0.33239852
As      27.18590188      12.25604145      36.78614822
As       8.57772805       3.94581675      36.54957710
As      36.08963101       5.76278672      10.20223361
As      29.52296617      11.07869046      36.37447925
As      12.19556311      14.33514626      17.47020718
As      23.28385051      32.82067530      14.47501600
As      21.58237797      27.86969502      18.93809702
As      32.90827147      36.18856648      35.93355198
As      34.15052538      34.61046094      34.47055840
As      25.39252983      16.00273826      14.86840419
As       3.05165965      12.65920074      11.35740726
As       0.41727266      20.83921169      26.69134345
As      36.20247702      24.69313013       2.07034092
As       2.36602755      13.91178084       5.07546994
As      15.42410255       2.58951617      24.26179179
As      36.65668413       1.92796951      35.52836499
As       2.02126995      34.25557155      29.15435350
As      26.88834916      32.66313165      35.84554904
As      23.22497355      27.97015429      20.91591969
As      27.87837027      36.13822707      19.69115593
As       9.11471496       3.78432707       6.50814478
As      35.50681734      18.42036421      17.00952828
As       4.75110584       6.59043996       7.92692020
As      31.52817656       0.97507502      32.87620322
As      28.03395706      12.89925371      25.50081521
As      33.34177573      11.37061679       7.57156834
As      24.74056721       2.66753953      20.47942959
As      27.87427702       0.87534389      19.38695826
As      28.08959457      10.60971688      18.52317069
As      26.02501347      15.50837321      27.15780966
As       8.42457257      24.70743123      36.30068521
As      34.57912907      29.00073448      13.84355305
As      21.92237937       7.16054991      18.13783233
As       4.94653428      26.43139156      22.55219150
As      35.72876559      24.57970477      12.06752409
As       6.17621383      21.31614295      32.37852070
As       1.39979248      16.51374839      27.37125181
As      32.00932294       4.21335679       1.73894808
As      32.74271666       8.34190941       6.70536669
As       8.58329086      29.14205361      37.07007460
As      25.19618170      34.27654148       1.53157504
As      25.47859685       7.95615251      18.56857912
As      21.74354453      21.92931839       0.28590392
As      33.78244130      25.82367485       5.32875048
As       1.21360034      33.43570241      25.84946092
As      25.34512595      14.00706457       9.60225875
As      19.44115230      33.53718704      32.11016030
As      12.85224608      25.89888076      29.54886781
As      22.86456255       0.69566318       4.64365810
As      20.59638099      35.63358305      35.44621250
As      35.87269135      12.95120004      19.52230056
As      18.12619383      27.60253531      17.91055341
As      30.12981958      21.25406054      13.44764495
As      34.47123342      34.00566835      19.09541582
As       7.12604262      28.15630921      12.08721191
As      27.35382270      16.47124085      21.65968349
As      28.39069136      30.48378376      35.27771055
As      30.32802778       2.13859779      23.28387505
As      23.53976678       8.15843075      30.59644260
As      24.41400117      23.69944727      32.07445865
As      23.47602231      24.36018866      12.56985022
As      16.07209282       7.07891437       0.55565184
As       7.66998728       3.62339985      32.95210957
As       1.51157045      28.04322820      23.01405260
As      32.16960815       5.53859492       8.93046307
As      26.41750904       7.57564999      22.86236001
As      12.55865134      19.65858360       4.63988844
As      31.52022539      26.37385751      28.03824635
As       8.49805638       6.36031712      13.13455050
As      36.27831832      18.22393791      37.06702634
As      20.16863675       6.91522282      10.20675882
As       3.62570737      37.01466094      33.51564651
As      22.32374504      22.98296721       9.10207626
As      29.41241890      22.18997753       0.48671262
As      16.10980312      32.88444845       0.69755509
As      29.79068625       7.70923853       0.30941436
As      28.02124247      29.75144123      17.61365501
As       9.69317935      35.68247133       7.20863265
As      22.09379648      18.05783418      21.70131725
As       5.17137820       1.99056084      16.39289659
As       1.34709199      14.02243985       0.48051432
As       8.91263549      25.26858822      29.66608700
As       0.36072187      32.45924309      36.14329874
As      26.98491460      14.38734433      18.22133664
As       0.28134468       6.48825014       6.31766166
As      18.54147498      15.28642943      14.24880063
As       0.48148166      21.59619156       7.27254860
As      27.96488180      20.29458165      34.06657637
As      12.88626056      10.56491086       6.32421418
As      28.18175871       1.50045473       1.09876029
As      24.79615455      13.47049473      14.79770503
As       7.63746808      24.37670787      27.62070918
As       7.01873625       0.37449120      15.40441275
As      34.26033592       2.61515185      16.48783035
As       7.14431856      28.33977090      27.65889467
As      25.87288089       0.40849324       1.25527483
As       0.12308292       6.47230517      16.12691849
As      10.23989606      17.93237870      34.58705756
As      26.74395971       3.98449559      21.23312494
As      13.00107105      33.44536650      33.57745199
As       2.45056073      21.20628633      23.41747725
As      37.68291300      24.11717998      15.30702496
As       6.19190857      22.84063322      28.98109458
As       4.09661516       2.97076691      14.31245014
As       7.68637195      29.14506857      14.20880388
As      17.04071382      16.25512295       5.67174699
As       2.86509391      31.99706331      36.43940256
As      26.48352088       4.99820842       6.50734011
As      16.74806209      23.86063005      19.47564620
As       3.75170460      33.16361679      20.72291479
As      22.09896390      27.31538212       8.51946525
As       5.56097689      32.27042463      22.17652809
As      34.60673656       0.78259015      31.10555344
As       2.17154241      12.03027441       8.09633195
As       7.40175074       3.91116072       4.37351252
As       8.88853096      27.16352141      33.81864438
As       0.05968891       1.84067654      22.09677673
As      19.00971669      36.11512161      11.10222168
As      36.96230395      36.31051503       2.94899304
As       9.63176430      18.38870194       5.96952603
As      37.18153263      17.85152902       5.55370539
As      34.72825835      28.31492419      34.40846682
As      16.98049094      15.71438930      34.04791614
As      31.10740546       1.09912463       3.41511193
As      12.27339748      37.40471380      28.56764900
As      19.64252152      24.99734081       5.10206604
As      30.73950501      14.79602838      17.05676931
As      25.62128655      20.74293014      34.14201940
As      22.43011592      10.28050248       1.93742611
As      31.63774883      36.36873803       2.98257548
As      12.57876264      27.22373183       3.82242178
As      14.44051851       5.88289353      10.61232884
As      36.99740382      27.09392690      37.38440939
As       5.39240001       3.35585247       5.89857639
As       2.75066398      17.74787235       5.56383769
As      17.49085138      36.44415820      30.71386912
As       8.57777394       7.68768272      26.68822607
As      28.35884790      36.68574678      14.20861893
As      34.70505346      18.96452265      20.70174521
As      24.58266437      24.04080892      24.47999387
As      35.57154016      23.68547314      30.34347916
As       4.60088164      32.02225790       3.56739772
As      14.42953979       1.55944509      12.15430570
As      24.68950783      25.68413512      18.54623130
As      12.54455216      11.33258343      31.89811682
As       5.78446864      17.95839164      17.35036273
As      22.16970506      32.39979115      27.13722876
As      32.22697914      13.77772989      11.68387141
As      36.21101583      25.84120442      14.14226758
As       7.99581246       5.44987384      27.52301629
As      12.77933561      29.42386151      17.13830424
As      30.21064044      17.45214167      32.65180607
As      22.97354556      24.89647421      15.49931350
As       8.92471369       6.36710193      36.01397345
As      14.18361162      35.48701511      15.51762056
As      15.87508445       9.96666262      31.42694940
As      27.78414470      17.30098696       1.80564900
As      35.82220430      10.00884114      27.88947839
As      37.12349702      13.95511401      13.21730596
As       1.46377882       0.63287779      30.77791765
As      17.99749516      13.45818344      20.48669774
As      13.48239456      13.66335970       5.61764284
As       8.19588362      15.28525921      16.79805290
As      31.76380451      26.93700985      13.82611746
As      31.96259840      20.86064641       3.10443098
As      24.97985823       0.05689202      12.57338871
As      33.05436465       0.39534036      16.75604401
As       0.52348977      20.00622427      22.12419484
As      29.84221238      12.75092736      29.03865059
As      18.73582167       0.41599549      23.80894917
As      24.91250544      30.69012411       5.36659945
As       0.76234871      23.52172987       1.84937943
As      25.65140420       0.94498042      33.08384902
As       2.51981913      21.10675087      11.40293125
As       9.80692260       8.90884234       3.29707643
As      32.19873843      37.22429437       8.83260188
As       3.36475942      34.24800033      35.46745802
As      19.09244711       6.88018750       1.45294433
As       6.08167000      13.16757290       3.42915840
As      13.06690330      24.35686545      31.51448115
As      25.26111584      33.20761755      32.05678940
As      19.79461877      10.10020172      12.12518862
As       8.39648856      32.01224662       2.80632827
As      23.79427307       6.15175945      26.37007963
As      37.33709993      33.40089308       7.41693344
As      12.48771642       1.95486124      27.78661989
As      33.10153573      23.84150156      13.63285881
As      21.15594700       4.23170491       8.43857723
As      21.64788178      33.15560756      31.02152185
As      31.54537864       3.22855760       6.66011724
As      11.54987366       2.99129980      17.79397357
As      11.93289139      24.94301347       2.91926312
As       6.50759622       9.45893004      21.70900178
As       2.77934433       3.29752535      33.38973746
As      31.72400411       0.49475431      14.58011880
As      13.25805694      18.05720990      28.22626896
As      22.81632035       7.07436830      24.15399772
As      34.55376406       3.01220195       7.67526619
As      22.52823502      31.92939748      23.17375999
As      18.16087395      28.90110740      15.85862611
As      19.34027408      29.56337225      33.67531165
As      30.51211326      28.67781207      15.25141505
As      23.75671752      26.71177225      10.17735273
As      34.67488407      13.64457767      33.68764326
As      20.82692010      24.62755338      31.65145841
As      33.27216643       1.48737541      34.61422187
As      27.85675149       7.67534450      36.25160692
As      27.59382110       5.08809342      27.04376337
As      30.96963984      27.78060236       1.45433688
As      26.66488440      14.55001825       7.46910002
As      15.49390570      32.32908908      19.86606406
As       0.27272280      13.37735035      34.10002306
As       4.05257897      33.78612875      17.30787200
As      11.31211907      14.32971124      15.16890345
As      33.53552569      18.72390890      33.58876706
As      28.31700354       5.56187214      34.96004185
As      30.02287458      30.07977592      29.14780513
As      14.62548340      21.15018027      11.04728211
As       7.19919426      23.81332912      22.08670666
As       4.14795662      28.54832722      29.03001059
As      26.79714019      30.26358533       8.78952435
As      20.49968574      17.00644455       2.29628857
As       4.61937135      17.37892181      27.99728116
As       7.61853337      29.70229645       7.21615556
As      20.51820008       1.55126642      33.93338202
As      33.04843763      37.32968382      21.04116569
As      37.42496782      14.69113937      18.89358492
As      28.06880199       0.20169362      32.77131117
As      24.42563863      31.35111710      26.46924379
As      21.83900938      15.44824404      13.47433568
As      12.06759791      10.91561061      27.18449111
As      37.16507559      11.78021696      36.03082708
As       7.20443901       6.99651754       7.40929930
As      36.56707143      33.44951362      13.31183243
As       2.04092828       0.55103328      28.37662642
As      37.02404062      29.75456472      13.59491004
As       8.62428266       1.39401280       6.37415027
As      28.67731939      14.21801174       4.46592622
As      37.47594244      15.22787391      15.28041653
As      15.10609454      18.53455888      24.73561344
As      22.56914932       4.09383064      23.64639788
As      23.02591959      19.96596580      29.63352794
As      27.11822343      24.78806197      27.18636528
As       6.80955269      16.25262572      11.37237296
As       5.99759637       9.85901103      28.43131432
As      15.32254374      23.24017761      10.18199174
As       2.51953372      19.59904340      18.40510394
As      34.27284981      28.81338395      16.31565432
As      17.52118124      21.82690582      28.39011132
As       8.13885731       6.75505303      23.29377372
As      36.51212605      19.93859200       2.20997988
As       5.09300224      33.19438236       1.38657283
As      17.15285964      13.35720158      13.38413225
As      20.94802718      12.58881416      20.08432381
As      17.18746704      13.23997539      16.00188322
As       8.93582642      32.08889723      28.34580262
As      30.46498465      24.08688796      27.82756856
As      20.51703677      37.65256937       4.85677636
As      22.13191857       9.69067596       5.95222532
As      11.94172118       1.07911909       5.43228824
As       6.11779667      12.03730423      16.38861408
As      13.86058275      18.27833821      35.27817098
As       8.10202593      34.13472179      19.94092420
As      12.72339239      31.91293446      16.61381342
As      36.54647770       1.58463401       4.42435864
As       2.04981127      16.02941909      29.71513954
As      16.79369122      25.36032317      15.69138889
As      36.00388563      15.77086038      10.03660061
As       0.38330297      25.94711830      22.68356137
As      19.60518684      17.46449189      31.77754941
As      31.21537613      15.80555868      29.63442644
As       2.82860957      30.26567060      34.53367965
As      18.96767802      11.28603028      18.04671339
As      23.62104613      15.81555847      27.73614121
As      17.92514798      29.71449547      36.97243085
As      20.15597845       1.48509790      15.90047831
As      12.55832401      29.77339242      26.37938717
As      31.79749319      31.26245857      37.39438073
As       2.29595477      22.52360276      34.92556436
As      28.19005546      33.96274982      25.46722683
As      16.65697131      13.13623285      10.25508757
As      33.66081606      27.92518107      20.34874025
As      22.65730240      18.87650182      24.02052854
As      13.31917333      32.13391906       9.69510996
As      35.08470625      28.23529102       7.80041446
As      15.66641272      29.19035891      30.49988952
As       5.16240683       7.36761669      25.31293317
As       7.86360373      30.36200083      34.99949966
As      12.31669749       0.57640527       2.01188990
As      27.87504999       7.31149328       1.88185695
As      36.26125203      30.05278236      29.28937351
As      27.23944709      18.58391512      24.61165955
As      33.34497613      19.78879011      14.15543566
As      34.18396701       6.51715939      35.30414908
As      23.67604630      23.29628224      37.21423778
As       9.70898051      23.96505326       8.78675446
As      29.84388355       2.48475193      33.80942373
As       4.88630447      12.05082449       0.10787933
As      32.66373887      24.11749112       2.24007144
As      26.72674677      32.45697850       0.65445407
As       4.97961995      26.74340272      12.22706267
As       3.81589759      28.11950114      14.02517683
As      20.61314450      21.67462199       3.75559814
As      16.15811212       7.66343140       6.55925577
As      25.48844033      26.30645809       4.63636910
As      11.01955339      15.06761712      27.25632645
As      21.24969281      34.96599046      19.50958681
As      23.24557094      20.44631525      27.14144589
As      11.06579652      12.50431887      20.56692854
As       4.97628503      14.49167379      37.60926912
As      15.04598222      36.86322483      24.34945103
As      26.32407339      29.77471008       3.54342525
As      26.84547407       4.99160917      10.33356325
As      10.34462702      26.15506408      37.19383680
As      16.23175563       4.19836695      10.82821277
As       9.80728435       3.07600702      14.08283273
As      24.72220495       4.11897311      35.84622192
As      31.97614559      10.62100581      13.59386614
As       1.15338936      27.12112530      30.06848120
As       5.34038671      18.99807646      13.23645343
As      22.12010228      12.78896520       8.64225944
As       1.30424542      22.98210050      13.48635586
As       4.21416164       7.26810398      35.69915251
As      10.03244964      30.27078889      29.65180377
As      32.38716343       2.41232802      19.63756183
As       0.80094811      36.13456861      27.71890983
As       1.29137991       7.64941307      36.92957024
As      11.48209904      20.27498150      12.62853020
As      22.86300869      24.20082303      17.96958667
As      31.49828409      20.75664997      15.57981666
As      22.95511938      27.01763856      33.42024849
As      13.21443786       0.48938657      32.20502756
As      35.18342513      17.76087266      22.75849903
As      24.91247035      31.41250117      36.92543785
As      28.76924545      18.77776901       9.30254898
As       5.24396954      29.90884314      22.95620104
As       1.62745079      11.71272723      37.38791783
As       0.45141574      36.28683487      14.33587514
As       3.34026158      22.61958480      27.26146857
As      23.24399401       2.98401172      34.04023759
As      29.92727090      36.46004815      21.18141131
As      23.29930706      37.09042140      21.39233132
As      32.67180808       4.07227184      21.38930152
As      32.62593816       3.97510979      17.72521996
As       5.23217709      31.01792190      34.07301183
As       1.99674211      35.90635770      25.55180815
As       6.67391166      30.84193157       4.20796922
As      30.29755518       8.94561941       6.92226513
As      35.76430530      21.26816157      27.56992036
As      34.43244065       3.06818055      28.32781571
As      13.94326809      30.34788507      19.96324889
As      29.30550767      14.16577238      27.23805541
As      28.54331655      31.58728666      11.09480993
As      26.41614025      15.54375241      36.46428863
As      18.51161993      24.40310843      37.27039668
As      37.63296830      31.05086735       6.80140075
As      17.04696414      27.58214513      35.97179034
As      32.09250204      10.74997773      27.03743685
As      32.45053476       8.04555696      15.73791942
As      28.90394073      27.24919349       0.28258897
As      21.47797008      13.57399377      16.00090092
As       0.38445524       6.63882184       8.93341042
As       5.05000292       0.46235932      25.40173802
As      22.24937502      10.61447939      12.12695162
As      25.34760937      19.31288604      22.14794477
As      33.92730925      32.91845195      10.10303423
As      16.98566953       4.19614594      31.57003892
As      12.07226297       1.31620427      34.14899546
As       7.41357289       2.00831723      30.86752560
As      29.71162394      27.59276072       9.27969236
As      36.23639625      25.60334600       5.11957491
As      32.91520796      10.38841937      32.79346037
As      35.77224945      25.45406272      32.07424075
As      34.53896349       3.64776998      37.35225274
As       1.76132691      31.97646533      33.01203005
As      28.89595318      21.80945070      20.09811873
As      25.13077214      16.48969454       6.76547858
As       5.82930869      17.71696643       7.52772008
As      20.19284966      18.58742729      24.76287054
As      37.42702097      23.75241360      36.16458764
As      24.28530032      13.18741002      25.08171160
As      25.77938065      29.15270140      37.60334098
As       5.61619238      18.22589448      31.44703849
As      12.74420069      29.26027545       6.42894970
As      27.98054582      35.91471591       3.77271144
As      26.18370657      24.86301761      30.70668495
As      25.16094277      22.87796855       6.12745460
As       7.45129067       9.38828395       6.85861787
As      34.39368978      21.17927510      18.18172210
As       6.66677789      16.87453821      23.22220930
As      17.27434535      36.91674458       7.30697607
As      29.20887872      21.40101101      30.59589150
As      21.69358798       6.68523124      36.36208634
As      14.93975670      27.80250543      24.85260340
As      12.20663015      21.58240508      10.72924945
As       6.36457897      20.04594986       2.10096405
As       1.29118496       8.79171889      15.95209844
As       1.81699698      18.74904262      36.06549088
As      25.34705297       4.47213908      25.61595793
As       0.58709925      27.36118534      33.76339806
As      10.62790819       0.38619540      11.87288269
As       1.05007072      21.94334064       3.86905012
As      20.07831395      14.81428077      17.56506219
As      35.92024881       8.25138826      32.33165383
As       1.59452120       5.49827863      14.44306193
As      32.52385271      30.54116029      22.37498034
As      31.71481937      25.47752065      36.87067538
As      24.19472646      15.76973615      12.72565086
As       0.97438041      33.84972664       5.30875866
As      25.32688979      12.84986667       6.11091154
As      13.56171879       8.61165148      18.74873038
As       1.89324655       4.64173892       8.70059029
As      18.59471948      20.92345301      18.52078368
As      15.12971832       9.18157833      22.08134448
As      24.14698010      30.33743834      30.83358273
As      35.43350681       3.07711804      30.65087894
As      28.12669514      18.60972525      37.42357132
As      27.77168701      19.29232854      12.26990097
As      12.96138295      15.14826645      20.69718111
As      33.44280393      16.12730946      26.50060772
As      30.42531085       6.22090005      33.69405302
As      36.71681791      22.06150723       5.29616552
As      20.59680482      13.74465365       6.00574722
As       7.76252841      20.96171469       7.36336878
As      36.99190726       6.05043092      30.33739894
As       3.04689668      35.75046644       7.43057537
As       5.28732075      23.45506092      13.36857795
As      15.35038489      28.18472185      20.15382051
As      32.74917506      27.12470407      33.79109169
As      14.60343121      23.11341507       7.81320743
As      13.57437353      35.69409818      13.08672961
As       6.63689245      25.40658782      20.17031418
As       6.45087636       0.48663808      37.10401875
As      14.60616945      33.07903728      17.71107680
As       8.78852597      37.61153017       3.00191539
As      26.68270565      16.53600499      19.37677365
As      36.14419461      15.92057727      21.41169162
As      17.03332108       7.96868426       8.92927233
As      28.12811897       0.05849925      29.67412951
As      28.72630508       3.42464828      28.59515385
As      35.38383359       0.30986127      34.20607117
As      25.58988862      32.41489882      17.86152841
As      22.87552805      15.13515628      25.43384214
As      15.96676976      30.39236106      10.64930686
As      24.51958349      21.06398229       3.30410284
As      18.58993617      37.69298306      14.73467100
As       7.93548214      32.92799046       9.25971538
As      34.97528858      37.13209180       4.14120373
As       9.00947705      13.51393362      15.19950123
As      33.54283738      22.41570138       6.13897736
As      34.61233139       6.69191259      23.49444204
As      13.22543979       4.77679997      21.99875261
As       3.44952599      22.74123025      14.77983737
As      11.09696505      12.64459767      24.87021577
As      31.31690440      22.63334808       7.14275595
As      34.10136391      10.44426116      34.94828344
As      17.97178096       8.81810713      36.38726298
As      10.76508014       6.01862181       8.69951891
As      18.99624259      13.87820113       3.82134521
As      26.76053892      19.13646459      14.52539479
As      17.36174379      28.34071485       9.60629357
As       6.74482358       4.87539798      22.56443384
As      28.56799987      18.11559358       6.78260136
As      29.69717049      23.92856568      30.20721808
As      35.51427011      17.43737414      26.41793495
As      11.71047235      21.44698766       7.41453969
As       8.25304303      16.99131847      14.87512073
As       2.55167785      30.97861446      20.94791933
As       2.34204759      36.60231070      10.96999467
As      19.58218856      23.75226767      25.74147465
As      30.07051646      31.79490678       2.23696204
As       4.59679211      13.53642013      13.15375281
As       2.67473838      11.41917198      31.67054271
As       2.35693789      11.32440646      27.38081007
As       6.23082765      23.61346129      18.57034391
As      20.02926216      26.13660891       0.21953569
As      37.14691859      26.51906808      19.44845692
As      22.48162784      20.62553130      35.86495564
As      14.91823124      36.86750718      28.96959605
As      21.73402772      33.19105386       2.23709255
As      34.54331473      12.81890577      11.35647244
As      22.80667376      11.10539960      18.98920708
As      16.11383297      35.21681725      22.77011618
As      36.26431921      32.23796053      16.76832452
As       9.61888958      34.24597057      21.85659909
As      29.90744571       2.76261120       8.42118333
As       0.90549513      36.23812123       6.11948744
As      17.68217637      13.07461646      22.92867548
As      35.33384738      33.31183796      24.53855062
As      36.77154529      37.14640813      12.42852597
As      13.59673917       2.66886256       1.97075041
As      18.11399885       9.84802334       2.71859274
As       7.25035136      12.04231581      23.91885759
As      28.86048736       1.17378282      17.20619808
As      27.69116843      12.31591793       3.40912513
As      13.39946944       6.08232888       8.30660420
As      33.03958160       1.17904327      29.18481706
As      24.55225887      37.18258917      31.30491490
As       2.54357261      26.27893115      35.10993510
As       8.28067720       1.50795959       1.03922983
As      31.77083591      35.77120187      14.01710490
As       0.90576557      13.56045285      16.87952082
As       9.29448826       1.26037407      15.73445611
As       1.52598927       9.07605142      21.15821198
As       2.18480833       4.50057834      11.21696446
As      29.56175355      35.67750850      24.32968957
As      19.73414832      28.46836315      10.55893341
As      18.76337257       5.42479487       4.98070120
As      18.40968386      37.22129427      20.24342509
As      35.92557130      36.86120175      29.62152298
As      14.87296314      30.68351902       0.35084689
As      30.56645319      19.17896280      37.46562012
As      37.02026373      33.78600115       3.53509757
As      16.62078794       4.28271578      20.69496301
As      26.21977949      17.56622962       4.83169770
As       4.94206926      37.10347821      13.01523149
As      12.99500452       1.35657761      14.26330940
As      11.00440956      22.45169293      25.57861470
As      18.33288306      35.29890300       5.66344449
As      12.23286704      26.00052728       7.77800690
As      23.12387766       1.70549522      23.99788894
As      36.33134551       5.48831525      36.02146440
As      28.00328725      33.81001325      29.05431505
As      16.63341633      10.51834067      26.08707214
As      36.44723676       1.90597050       8.82504365
As       6.49207935       5.67314976      20.17510250
As       4.70678205       9.77397538       9.45350525
As      13.42137470       1.23016272      36.36279639
As       5.35506371      19.49573566       9.34427321
As       6.41090855       7.38653630      13.93580581
As      17.03389817       2.79938714      37.49383382
As      13.23559485      32.22580564      36.78458784
As      15.16572710      21.93554176      19.74065750
As      24.56308324      13.46914042       0.93408162
As      28.97000255      31.48700092       7.93811499
As      26.88785753      35.70533947      32.63005246
As      29.85957473       1.27509385      35.92424818
As      23.46368360      23.97048094      26.71441080
As       0.78217756       2.71813839       7.72069655
As      37.21788068      22.26110503      22.44942189
As      19.64095844       8.85471130      25.78391067
As       9.81871131      29.80683621      19.37720934
As      28.40362577      18.04703626      29.03123609
As       9.14273345      19.18112773      36.40866834
As      26.54823602      35.32275093      26.77817799
As      15.90516231      35.29874120      32.21625126
As      10.07649964      24.12998297      19.18622704
As       6.22963813       2.09848035      23.14276772
As       1.10831377      27.03841287      26.35423906
As      33.76056406      33.70149269       2.48274063
As      24.46104707      19.23260184      13.92445695
As      36.05454039      34.73433856      22.54101328
As       2.96446516       1.00898311      13.22356208
As       0.00480127      16.58405711       3.49874823
As      25.25709775       9.56039679       4.26126173
As      28.83576821       0.73551766       7.65687126
As      10.79731066      27.07797623      12.35336099
As      18.89393175      17.23291689      12.76233875
As      19.57473774      33.91917371      18.03143241
As      19.54351371      36.04178406      32.13107267
As      37.42784308      11.72016106       5.09217912
As      11.40992898       7.79338964      21.76304778
As      14.68610759       4.73021926      18.17445023
As      16.37808617      17.42715868      32.15892788
As      25.35461539      24.53099954      15.64688123
As       8.67000591      11.58155084       1.24603983
As       1.03162972       7.32889030      33.38431430
As       3.81344882       2.67727606      22.60413240
As      15.66422297       1.28858219       1.45528191
As      24.13776056      34.61220829       5.33573865
As      20.77154176      30.33884813      22.18499749
As      16.22448285      18.36433220      35.62549304
As       9.64865922      11.00041735      25.97977325
As      29.89906931      16.17507765      12.02956657
As      10.41190258      13.18943541      28.74099046
As      33.24439660      13.81440911       7.75282844
As       3.01035614      32.94642833      27.43673046
As      33.45843615      36.27664839      26.41223561
As       9.74255231      33.66912318      18.35498245
As      13.59560374      30.18478006       2.37050899
As       7.46491987      29.12424936      31.32132146
As       3.94108730      22.30791405       2.16042217
As      16.66579641      16.61426141      15.38781400
As      33.16702572       1.78560595       2.27585867
As      31.85725265      31.24953856       5.23813170
As      35.29507231      24.33472604      20.44407986
As      30.90755445      23.54618765      12.67923030
As      14.54575365      10.74742435       3.67100430
As      16.72302728      33.31060590       5.89242376
As       3.82132468      20.92321193       7.91922029
As      30.59152955      14.70739169       2.72829561
As      26.68305439      35.95654756       0.16453222
As       7.23824274      32.22943485       0.68075685
As      16.12969555      15.14591916      23.23514943
As      13.32424086      20.67685908      32.59434319
As      25.57119046      21.80113612      21.77165855
As      11.40592957       5.29758124      29.43337218
As      21.09540441      28.10381243      29.94392687
As       8.95878016       2.36899503      17.98290399
As       8.72551719       2.28747367      34.66904693
As      35.46677454      36.19568127      35.94037879
As      16.38328594       0.76278358      22.82226326
As      17.14018513       5.64750982      17.68432088
As      19.14976085      33.57719668      21.42710084
As       3.09348837      24.80321641      25.01958884
As      19.93968470      36.58202438      26.97498602
As      30.97914773      11.52826836       1.99389111
As      22.14849869       1.06318480      28.75737389
As       3.51747319      24.67465285      16.67798191
As      37.05882185      12.73210697      29.79524971
As      26.94813855      23.79390467       2.85797196
As      17.79255416      15.19327049      30.08068445
As       4.78394648      36.40035248      10.54672073
As      30.49104238      17.35310532      19.72047812
As      23.84847283      36.25434094       3.57957315
As      34.53819289       8.64451759      11.88264005
As      27.77243665      24.99618383      21.27740658
As      23.11271143      27.03346321       4.49485304
As      26.02385203      13.01947044      27.03570184
As      31.81776585      22.98167002       0.05819035
As      21.62660678      15.96546571       6.40157825
As      33.14284605      27.63903121      25.23378155
As      16.56928836      10.92164631      16.84235980
As      13.22562070      15.82701678      23.28578614
As      24.83116452       9.30906310      21.99579140
As      33.95452170      34.94739090      14.84007669
As       6.69173422      23.58678002      31.37128233
As      18.44049832      26.88336400       4.02105521
As      27.19360832      23.94507992      12.17795172
As      27.90521689       3.56547855       2.51335186
As      36.69868094      15.81446977      27.84728059
As      23.28820633      25.56789542      20.82350989
As      15.12615709      14.34625116       1.36673053
As       6.54405988      25.37213995       2.35335573
As      30.80168437       8.29266744      17.59480390
As       9.32298029      21.75853516      28.94739460
As      26.01669211      14.26610949       2.82562762
As      19.16641510      25.04767227      22.73108761
As      17.45635457       7.74468831      12.58009150
As      36.69645820       5.81537816      21.36913422
As       2.13675365      25.03373607      21.25515881
As      24.23105747      17.05414529      24.68486928
As      32.00533295      24.12881369      31.46901188
As       4.48610784      35.94863839      26.44939059
As      26.21211794      10.87727476      23.15520287
As      21.50656252       9.80178932      36.04202538
As      15.97053435      17.82721694       0.48165553
As      25.80221587       5.64112915       4.17607713
As      25.01789433      32.33299106      29.65076680
As      16.40782298       1.88061837      31.14833914
As      28.27379974       1.65248068       5.37985782
As      26.91694865      35.61157273      16.09946066
As       5.39778929       5.58703673      34.23466714
As      11.66583209       3.68501978      33.48758644
As      12.16762617      10.89741754      23.31105819
As      26.52162995      16.98736059      32.79417680
As      15.90102354      22.08631099      23.64796578
As      34.92496243      29.08500243      31.93475081
As      24.39273861      18.07583620      11.74906847
As      37.59780538      20.53802274      30.31344793
As      10.56563830      33.81215973      28.88117866
As      26.10946051      11.03175633      17.09805226
As      21.21358278      27.96271993      14.88505557
As       1.56230772      35.80903003      18.82205650
As      27.74355184       7.03156118      18.99496149
As      28.54608751      10.53693670      25.77348243
As       3.69087180       1.16265911      31.78674734
As      20.78223757       4.77615351      15.84550543
As      17.62192688      34.36589326      29.37926062
As      23.48032148       6.20770860       5.40879385
As      29.06296743      32.94563593       4.50325371
As      10.84962113      35.81075782      20.54276850
As      31.72959089      19.29275752       5.07540409
As      27.98777316       1.49535445      23.66661741
As      15.50570925       2.65103684      27.47284204
As       7.52589968      15.19664208       8.57213494
As       9.11132350      18.88340653      30.93884744
As       0.26119820      27.47450370      13.08288114
As       5.84214216       9.57485047      30.87732526
As      18.87125868      14.59119144       0.23864277
As      17.77088838      19.75329708      26.89849795
As      32.34125932       9.48758782      36.46052866
As       8.30675734      12.32050428      27.55478860
As       6.84586295      29.94009798      24.84622154
As       3.67703271      16.49122947       7.62776532
As      14.77198181      14.10369528      13.15308136
As      32.65665532       5.00646526      11.33366727
As      30.17625619      15.51003843      36.93452623
As      33.95306236      29.84174481       6.06242704
As      36.71872971      10.63976233      18.85997538
As      27.76833194       4.76796746      15.77820707
As       5.90073419      33.86449440      36.03370471
As       9.90073808      26.64374193      21.48158218
As      13.48695236      21.37640251      22.95385664
As      30.92101169      37.16922383       6.74331178
As      10.55192659      11.31421082       6.62250441
As      18.89769845       1.13270287      36.94809455
As       3.76665114      20.01783529       5.49877907
As       3.84393593       9.21543560      32.39204881
As      13.61371285      17.23823534      13.51718107
As      22.64905739      15.28909988       8.69644336
As      18.42186069      36.19108001      34.31836464
As       6.83460688      37.31311266      31.16834261
As      32.79624448       8.73363241      29.54708212
As      18.28240340      10.80646181      31.44296739
As       1.56008661      30.13768622       3.39980500
As       0.05661244      21.13825227      16.55222255
As      32.37798877      36.07877525      11.65819606
As      36.48986590      13.82000049       8.49167240
As      26.36829465      19.41695436      29.45878644
As      13.17302784      11.42262664      19.92386264
As      20.03367730      36.80446119      22.07600089
As       0.80533197      33.50999622      11.76868967
As       6.27576669       1.91766893      34.40092525
As       2.01414844      33.73515448       8.60996124
As      27.26510699      15.74926859      29.27109810
As      25.68528396      21.74675007      37.17538385
As       1.19862370      22.96129360      20.49947955
As      17.63932701      23.54551745      17.10865758
As      31.59311507       1.69471167      10.03438120
As      28.91533677       9.78439044      10.45518469
As      31.59253913      33.96039800      10.64087870
As      17.39253422       1.90205517      28.80386513
As      17.80814602      28.32552490      22.88358217
As      37.23409561      18.87054030      24.04537319
As      20.12045736      31.74581198       0.81565385
As       9.48230418       5.76450260      16.49464506
As      17.16925048       2.10820118       3.22839520
As       0.19036324       4.07288106       5.63525082
As      29.16120719       4.50498071      37.10680032
As      12.27684730      22.26132557      15.54577437
As      12.75872842      24.29932959      25.30912154
As      35.96613786      32.51687421      30.89249904
As       0.71612186      14.29952822      31.10150474
As      30.65873218      32.91425354      19.60159423
As      10.54187524      16.78037702      12.03465223
As      12.55161245      11.79961751       2.49210657
As      33.72929645      16.98364491       4.26246717
As      34.41157677      23.27631226       8.28113128
As       1.35252837      14.36326283       8.18262601
As      35.05172827      26.66821246      24.04971439
As      30.95145896      26.94393594      30.37241863
As      22.56500660       0.74352085      15.69531990
As      16.46457171      20.89023032      35.61281712
As       7.17792143      10.13178281       9.23989583
As      21.61510176      11.85406787      26.93496927
As       9.13153387       0.30057797      31.26246720
As      35.37744674      27.82865308      28.35351948
As      22.53721193       3.21999421      27.40508569
As      23.22878197      11.20037691       4.27676083
As       2.88614753      35.47095259       2.80833799
As       6.75004346      26.70313421       9.08418423
As      16.98550107      13.85374113      26.28460290
As      19.37392196       3.98978423      31.20385835
As      22.50728804      35.22689450      24.29351248
As       1.91558747      15.00154370      35.66181475
As      35.99504619      35.10453745      31.54092513
As       5.90430327      14.51614443      16.68164194
As      32.87465983       6.24461821      20.05515409
As      15.95236499       7.08310084      15.89639728
As      10.87354963      25.20627667      28.16176732
As       1.97960296      24.82519999      12.09424967
As      19.92638306      26.64758163      28.35205432
As      21.66336996       4.20988272      21.41267264
As      34.38897995      18.01463652      29.92026849
As       5.66867975      20.69160312      23.58875151
As       5.13008381      36.08013861      19.76132018
As      12.69639850      10.22536975      35.75277755
As      10.98732483      30.25850364      11.80095399
As      31.29565997      15.06834623      19.53925252
As      29.71592249      27.29154574      18.63636716
As      17.11504763       1.76910929      18.05207529
As      25.28203930       7.35299146      16.10154643
As       7.82082785      18.92736472      16.31181456
As      33.74195664      22.42256850      20.21988066
As      15.44148041      20.65604844       3.27140635
As       9.63274217       5.45045857       1.87926026
As       7.58010180      23.30716242       3.20763662
As      26.15179400       3.05004616      31.95214127
As      36.82719540      18.66298181      19.26512608
As      13.19076698      27.40564086      26.62499590
As      32.58205440      25.81648219       7.70864114
As       2.46522276      29.94247823      25.31494164
As      24.11205156      12.69601625      35.32061975
As       1.36776549      10.95413917      19.50903585
As      35.30050792       2.17871899      22.33219669
As      12.85294655       0.07996538      17.46354762
As      35.65954090      30.29108102       1.98284183
As      31.63911292      20.94761060      26.55069808
As      17.20092467      17.00632444      24.71551054
As      24.25517928      18.88576423       0.32320373
As      15.46391156      24.33583649      22.59725916
As      33.54406515      19.85559282       6.68078962
As       4.48144273      16.31373052      25.58748296
As      28.25558895      28.70947781      32.21889213
As       8.83035967      26.21604504      19.20850185
As      19.89528337      26.41132191       9.13420005
As      26.16491312       9.61086758      15.13874291
As      32.29368427      19.84298207       8.96546516
As       9.97833704      24.34366430       6.32696496
As      16.50296581       5.23560965       5.92701843
As       6.91959619      16.15133387      30.80481531
As      19.82243937      34.51943296      28.20726108
As      27.21475249      31.99263734      14.74371645
As      18.25237145       8.87724797       6.93401585
As      22.41095247      11.16191707      16.62861526
As      20.35002386       3.34771804      24.48348091
As       2.43555119       5.56477498      19.94702393
As       4.83551242      36.04413180       4.25004219
As      25.17070681      35.16387721      18.85592564
As      35.24052458      22.17870315      25.27656030
As       0.53523657      25.55947958      32.09899525
As      19.60680076      15.52382859      21.15896864
As      14.22908455      12.13757630      28.27318465
As       3.12171826      30.13167699      17.66034147
As      22.85452238      34.00241604       0.25047710
As      12.19790866      20.00803690      18.92301078
As      14.42342622      13.17911633      21.11024035
As      15.21290944      10.90736957       0.02581056
As      15.08011788      23.85791935      13.16494670
As      10.13692370      10.96952303      35.59680122
As       6.39394618      23.14807652       6.95670126
As      25.14995358      25.23930343       6.91093947
As      10.25467938       8.44690261       8.76270126
As      17.30831642       5.22850421      12.89282239
As      17.26159487       1.57551001       6.55800200
As      16.01591654       8.70091717      18.64364584
As      11.86429154      35.11597024       8.39525023
As      28.60936940      21.82775834      17.11265900
As       5.74742942      30.92821491      31.65066589
As      32.24596162       7.52353391      12.12325326
As      21.71057390      18.41063303      27.87094138
As      35.26597627      29.78155239      37.16895042
As      28.37972713      30.83088880       5.63857362
As      14.71926781       0.38195043      15.89122837
As      11.27443794       4.33612182      15.63312686
As      10.85652043      32.61247243      34.52529325
As       9.89813385      34.83277563      26.56542124
As      35.74587024      35.26203957      26.11695990
As      33.50588801      25.04994513      22.91309282
As      11.07763149      26.84836969      14.83284371
As       1.10964873      27.47976158       7.61033498
As      14.01653999       2.21829525       4.38541304
As      26.99362839       0.39837155      15.60444864
As      15.03351964      19.06475108       4.99935256
As      16.47871894      30.12292637       4.89248369
As       8.51341231      16.80605701      33.21120203
As       3.13044316      24.45901677      33.55135907
As       4.17047539      18.91556793       2.11740575
As      13.97142964      34.83029232       7.19500046
As      36.68614195      17.22781321      29.88195573
As      26.83219720      13.62418007      34.77571729
As      22.01176782      17.25666573      15.07639575
As      35.19838513      12.52231446      13.68786685
As      33.40711806       8.10612582      31.93916948
As       6.51771031      29.86366870       0.59122616
As      22.50326644       7.17971127      11.03004736
As      32.12714970       8.03140493       9.65932485
As      17.36152698      31.86813932      22.14930129
As      15.48626681      16.08778600      30.26345818
As      28.50867003      26.01955350      11.87141771
As      32.47802699      31.42145990       2.87562223
As      12.58258686      32.58098939       2.33499624
As       4.00429757      13.23288205      27.15802531
As      14.12114891      27.74487359       7.95997690
As       4.79747353      22.02879749      11.38410941
As      20.24344837      18.29241988       0.17702059
As      17.56589552      22.56344302       9.59501445
As      17.95324932      23.63810560       1.87121458
As      26.30727886      20.68081807      25.58822172
As       2.53662136      32.13191738      24.11697653
As      13.90251465       2.60222736      31.01491041
As      37.00539500       2.64750787       2.17743423
As      24.77963160      34.44645246      24.61813176
As       6.08277175      28.80075487      34.95222230
As       3.60444862       2.55476228       4.08699283
As       2.30648812      35.16345270      12.96530601
As      28.73699524       7.40024975       5.67015476
As      14.51232890      30.15451555      22.48164963
As      27.62498418      36.87225626      23.22619473
As      31.55280841       6.43007035      23.30878031
As      28.53071900      17.76830940      18.24913385
As      18.24556861      26.39511283      24.59308664
As      34.82878342      31.47419328      18.62818437
As      15.98031732      35.07960514      27.66584651
As      14.34701352      24.94702654      15.54249214
As      36.15212176       3.38047031      10.68593548
As      28.61501355       9.40162616      14.58450677
As       9.68527900       7.65503749      14.90067301
As      30.50970860      32.78622147      12.43540305
As      16.42853516      11.53792760       2.13751270
As       2.10725360       5.57740686      28.43357400
As       7.55134356      19.28314910      22.93154205
As      11.97616501      13.14249663      33.53325712
As      30.03911901      33.89854159      30.73272838
As      29.86536041      33.69373922      27.41534468
As      28.66771051      21.12995181      26.80209934
As       3.62027491      20.56270762      36.97842055
As      11.97248438      36.19672238      26.34707266
As      20.25298230      19.99110093      10.45138880
As      22.42910996      18.14237729      36.54334212
As      12.95216398      23.87117898      22.82168633
As       5.03894402       7.64260311      20.81002003
As      25.63675477       7.86292507      26.82467924
As       1.34541637      24.24902789       4.89103616
As      22.21862883      19.38752102       8.06574008
As      30.27932523      12.83396884       5.83744933
As      17.59683579      29.09201297      19.92418044
As      11.31857450       0.18501766      37.39310823
As      37.12403482      17.05612237      33.76869681
As      21.09666197      25.49892880      19.47236912
As      13.51852738      24.87871355       0.93835716
As      24.73921829      16.04103677      22.40274995
As      20.27030609      25.06421357      11.14870877
As      27.76823955       2.43779011      36.56714888
As       1.84667797      20.05172597      31.80850081
As      37.33244212      24.16107295      18.96961922
As      30.17105105       2.14317099      26.78826015
As      35.47090886       0.88918485      14.06498837
As      23.64830320      20.85173782      19.20024155
As       4.87460354       3.65802784      19.73089322
As      17.81802403      37.03768422       0.32485584
As      35.05504240      37.63443384      23.49131168
As       5.22483757      18.67652737      37.65792040
As       4.54363159       7.71134574      10.98970836
As      37.06222808      25.50632543       7.55223841
As      15.83149666      25.41241362      24.85477426
As      18.02327657      20.72895766      11.37821358
As      14.15774683       7.86953469      28.77898200
As       5.99217931      25.21689344      16.60981671
As      17.24243405       4.33279723      34.08253481
As       7.16895632      24.09063876       9.06213940
As      15.66392633      15.97252858       7.69407876
As      15.83957771      30.48784202      28.43032467
As      14.72772766      20.94834896      30.56321841
As      11.03559083      17.81664705       3.85229882
As       4.69063553       6.54126558       0.28762526
As      12.85718419      29.80248746      13.47197282
As       7.00442405      18.67526769      33.53457110
As      27.20078740      33.42772723      10.45657863
As      19.15316065      16.74894087      36.48389177
As       5.44514772      22.24873777       0.26731287
As      17.29903506      29.62800410       2.48526359
As      32.32978306      30.98124319       9.72872754
As      21.94177946      21.67049242      11.24325470
As       5.95329433      27.67555498      17.58994922
As      28.62361636      32.96075202      18.38195918
As      25.58289259      21.57056130      31.75215932
As       1.78209437      14.54297301      20.32025252
As      36.95572806      27.93048213       4.75252464
As       4.39978805      10.83629901      21.94885374
As      20.59110183      20.85856198      34.18098726
As      32.95952569      10.93132497       0.69717853
As      26.35226380      35.90703392      30.24735375
As      28.99090426      25.36800113       8.44177911
As      18.47319044      21.44410822       5.05006765
As       7.12361043       9.06013518      34.02855581
As      16.81620420      17.07813878      11.38536492
As      21.06147270       3.99268683      34.44663386
As      15.27563524      26.57122275       5.85970822
As       8.73529983      35.58930499      35.28391334
As      20.39262256       7.19217743      24.07421202
As      11.00532421       7.47363098      26.63000762
As      28.49483584      10.73593317      22.09636550
As      15.65940951      27.18549568      17.79203195
As      27.24142689      25.48868210      32.90516209
As      24.84950561       3.63279820      10.98844309
As      28.80114147      33.99114691      32.82868884
As       5.42356901       1.27318229       2.94039707
As      16.51883918      35.78348583      10.83168336
As       0.35337764      33.61185052      21.25750648
As      30.78863638      23.93660782      33.70593096
As      13.31654296       8.87031715      15.18319590
As       5.47785417      33.03399292       8.81738278
As      16.14902206      33.41955883       8.30798235
As       0.91855274      16.74294721      23.76797776
As      11.70483446       8.72045346      28.65952624
As      35.42887492       8.01926627      26.46110946
As       8.33401107      27.65859733      23.03860381
As      30.59210186      24.99704198       6.55336108
As      19.35075202      29.15280268       3.79317876
As      25.19363721       5.47035250      22.52932108
As      15.34849960      37.57259212      33.37363624
As      24.86755684      21.99739932      15.74840579
As      35.21362755      24.36506686      37.42584060
As       9.51620322      11.89697985       4.38555030
As      32.18371103      28.97026647      37.36001987
As       8.50686366      22.64987142      17.93250047
As      26.12078783       1.97856141       9.60407534
As      11.44878892      33.01402513       4.57554659
As       9.03140082      17.21663320       8.71796628
As       9.93789631       5.37936202      24.15703574
As      32.30287406      33.41954781      32.14996263
As      15.07970352      16.33183341      19.69118471
As      30.24833367      10.39557735      23.93481378
As       2.13011293       5.89241556      35.49443135
As       1.38627232      12.37969058      21.59899809
As      10.86890213      15.85973220       9.77913201
As      24.14371519       4.39289339      29.09676641
As      33.67354264      15.80703251      29.00996759
As      35.43552706      31.79256868      11.73029392
As      32.56771546      13.12470176      35.11977003
As      15.53033022      10.03700022       8.69362837
As      33.63836526      16.57028341       9.50694006
As      24.34654403       0.23951862      10.12713837
As      13.77878809      37.49628043      21.20389171
As      29.16006212       5.55791682      22.93073318
As      23.62496164      29.25450990      27.60165028
As       6.42015330      27.42703729      32.81492172
As       8.79304803      27.23166852      15.55834728
As      36.78224327      11.91151114      16.68873315
As      29.19214406      24.08528737       1.98992352
As      27.12718072       5.05287560       0.68809508
As      11.14818216      22.12045232       0.15866252
As      34.56326253      33.75084198      27.72270151
As      22.69975326      20.20550255       1.77004023
As      35.18512914      33.41729561       0.49805519
As      12.62290731      32.76234327      27.75047304
As      13.63145201      18.90324047      15.40056412
As      37.22801684       9.28059597      22.66248109
As      18.36438923      35.93829467      24.92410622
As      27.60098651      18.85369345      21.13476506
As      15.56604575       4.70125132      22.97523535
As       0.15427229      29.19217667      30.94085220
As      23.42135145       0.32071230       7.12182209
As      12.91226842      15.69162301      28.82610250
As      21.21125695      17.19247095      11.75991920
As       8.87582337      19.66483204      25.08867146
As       7.59141803       4.21482342      14.32497575
As      33.61240566      17.31244145      35.80949407
As      16.49114929      16.23026284      26.92338484
As      11.19628905       6.63328429      34.87431694
As       4.14737462       4.18669278       0.46046117
As       8.96771918      23.46953444      14.69954241
As       6.16940698      35.25008275       2.22840708
As      24.30615069       8.48711932       6.24756644
As      26.05615167      27.44577248      23.09547539
As      29.93302044      13.11683618       8.34030608
As       2.94821167      22.01893373      30.75539425
As       0.03032914       4.07820387      28.91516331
As       5.31274495       7.74877289       4.04941454
As       4.42818643       8.58059652      18.47985496
As      10.13003176      16.16645766       0.48364898
As       2.21164421      11.83011789      24.95424859
As       2.84728806       1.32631062      24.42225781
As       2.36129545      35.57566852      32.10655070
As      33.54033299      32.16789572      30.36181964
As       9.48204596      17.04810569      28.08777844
As      25.27871713      19.07717875      27.15880500
As       9.47466473       4.53602192      20.59111344
As      27.99124611      21.94060920      22.58652176
As      12.75546466       0.57849155      10.46367280
As      26.03062881      14.32204837      23.63425877
As      21.05830147      22.30396023      24.36737964
As      35.09696301      36.88608198      15.78475041
As      36.02109013      16.04685712      12.56262467
As      23.19314492       6.54430406      21.42880132
As      12.55427926       7.91444374      36.52635427
As      16.07507758      31.30681889      31.77434364
As      33.36754236      20.73016189      24.74852732
As      17.89317520       4.35916739       9.04374082
As      17.76470369      28.02486456      30.84244714
As      24.51642902      12.06297972       8.38608275
As       7.72974611      15.13193188       6.04105604
As      32.31034049       1.12366523       5.60754978
As      34.17256458       5.15007601       1.43460406
As      12.54590141      35.72477010      34.83983771
As       0.42400991       9.98748451      25.08121648
As       8.28084414      21.39974818      20.17741282
As      14.77005042      26.17682061      12.47364067
As      24.78229061      31.42895914      20.00887162
As       2.19547685       3.36336403      17.00820263
As       1.58460532       1.94697815       1.52180782
As       1.40916053      19.52637652      28.57512023
As       4.19590119      34.18969699       5.81386027
As      16.79652544      26.16840340      10.78539427
As      32.13276541       5.95098481      26.83528482
As       4.08163400      24.21970259      28.89866836
As       2.38454376      26.67553583      15.55912447
As      11.70523572      18.98339006       6.93412232
As      35.70111684       8.58537551      34.81719466
As      24.65611824       0.45159467      28.82431095
As      36.96080107      31.11294626      27.27104784
As      23.39682011       6.51426523       8.79851165
As      12.14980006       6.42749806      23.68291733
As      25.57638931      33.67770566      13.93454695
As      13.50723872      12.23098526      17.51093055
As      20.01716442      26.50598171      35.46321824
As       3.70938960      17.15327741      36.37929845
As       9.95184879      11.16445773      31.71848528
As      31.64592116      30.60472994      12.05070172
As       3.90085216      24.14662337      22.74875528
As      21.48379259      12.84191903      32.71118418
As      35.06007527      21.99933650       0.31090691
As      13.22023082       9.75096374      25.21307261
As      34.71716170      26.14280333      18.78974693
As       9.84231670      25.91651948       1.93717736
As      34.90462934      21.06615877      21.88885002
As       2.25617236       8.39161755      11.91974423
As       3.63724613      13.52446136      34.80573488
As      15.89048800      18.24101582      13.37551868
As      34.92134567      33.37514702       4.87429120
As      25.93962653      37.45009022       3.57103526
As      18.57409325      16.67939595      28.22322357
As      26.95549419      22.62050885      18.80860042
As      28.24570185      11.79918581      13.66842861
As      23.61775755       7.32998472       0.03585064
As       0.28575354      30.46313426       1.38531575
As      23.08571046      34.01276718      32.87458359
As      36.99403305       6.57595044       0.33762903
As       5.22796452      34.43974855      15.05011362
As      15.08445501       3.21686453      34.53903431
As      22.91941774      29.33947499      34.56614418
As      15.93365607       5.02096370       1.97185704
As       9.89180791      31.71193796      26.10910116
As      15.21030314      37.16028058       3.96286147
As      10.07175610      21.43784873      35.76124542
As      35.08334982       9.09592089       2.96173948
As       8.45205721      27.20885098       7.39195000
As      29.13234953      10.07446800       1.02612476
As      26.83663794      33.67657406       3.84744322
As      10.06337556      10.11482704      20.39371121
As      20.97158928      20.19151876      21.23877025
As      11.63617187       5.01905488      19.36094699
As      20.10871416       7.72084730      33.23078567
As       5.91277196      18.78326599       5.26585532
As       6.78084342       2.35130187      20.75868733
As       7.06499624      12.88665571      20.11170802
As       6.76720884      33.24947721      26.18454199
As       3.00581909      26.56414729       8.91630045
As       9.38743170      23.08853205      12.19905955
As      12.46923531      18.32089889      11.61979719
As      33.36624859      28.06203474       4.25407090
As      21.83989855      12.77246938      22.34235710
As      17.40586970      31.12409854      18.61465942
As      12.11461291       1.56122064      20.53762872
As      13.59519284      35.73687889       2.62914879
As       8.55688569      20.54209624      32.68824915
As      18.71571760      30.35358193      23.80086406
As       1.30332669      25.33457227      37.13922203
As      34.11783883       6.88349556      28.22924310
As      13.75822300      33.92520671      21.72854491
As      27.49572439      30.22091118      12.92869677
As      36.29782912      22.08473765      12.50777603
As       0.65975801      21.91549540      33.04393697
As      11.91708468      27.30921984      34.16662686
As      11.12651530      29.23795631      15.22631363
As       7.20563328      34.87755414      16.54715054
As       0.34474418       2.13589837      15.73007665
As      37.58140775      10.42035390      14.78667101
As      35.46520142      28.24083148      22.10346581
As       9.20146514      13.71923784      23.66698308
As      28.10703981      18.85217087      32.10160511
As      25.84091667      12.80567712      21.59243550
As       4.09934829       4.79233115       3.05827458
As      24.68589682      18.18677872      34.28923976
As       2.08147401       7.41196990       4.80948771
As       9.84576126      35.75128271      11.04735550
As      16.84250127       6.55251879       3.81581187
As      26.22603817      11.33965242      12.26199170
As      22.76537218       9.39348459      10.04000913
As      35.71852208      19.73440439       4.69202674
As      32.28540593       2.47898259       0.05222259
As      31.37667220      11.04536271       8.71731237
As      17.16259790      12.35569757       6.60193576
As       4.02476836      35.30550362      30.07766802
As      17.39029530       5.78807156      28.48517596
As      21.69290580      16.30999481      30.56619710
As      18.44425600      22.39262558      20.45711429
As      13.89098288       4.41181491      32.74543484
As      28.27473673      37.02841299      27.33043104
As      33.28491523       3.57952560      14.39659912
As      21.35721791      32.66723817       6.50368346
As      30.31039688       5.30738139      29.62927825
As      24.19476351      24.25281617      10.07467828
As       9.56945264      28.37302982      28.07290026
As       8.15584039      36.21995796      27.49532938
As      17.67045057      31.11210537      34.92787879
As       3.61524710      15.05802772      32.81605439
As       6.14077226       3.86852635      36.00475684
As       4.59167411      14.08055108      10.03294224
As      20.38174828       0.48008161      18.99793926
As      19.19640778      29.99633416      30.20652624
As      21.19386818       5.42804578       2.23475040
As      13.85016791      16.39804710       0.73716338
As       6.84946334      28.76006787      21.33733133
As      14.22024468      27.20303372       0.94395888
As       4.06759990      24.71882080       2.19850440
As       2.54953579       7.73789331       1.44568200
As      13.67258792      16.94643654      26.03497503
As      16.47303758      22.94927040      33.03034796
As      23.76827142       2.45639992      14.43172052
As       5.18245558       9.66378054       5.70623530
As      20.11917664      33.24541807      34.61204889
As       3.37282796      27.41640811       4.54062265
As      13.76044572      25.82260999      34.72569585
As      12.00725061       7.20464282      13.98532119
As       7.62294665      10.47037667      19.57806340
As      29.79716150       2.77097688      12.93136379
As      24.80546530      10.98120222       1.13371931
As       1.23651001      23.94642194       7.32329581
As      18.57915038      10.23717350      21.51943998
As      29.51201735       6.44633123       3.55392128
As       6.98726051      34.34074163      33.90213067
As      16.09032607      33.54899890      11.80380436
As      34.95816418      16.92106092       6.42663877
As      16.70577805      13.99797909       4.64103740
As      11.45845236      27.56375410      30.76385142
As      12.04733299       2.83964942       9.55791561
As       6.13177163      12.61933427      11.38084615
As      31.16455915      12.66203339      23.73324958
As       9.22897520      13.91113934       9.70700228
As      17.13878143      28.82155255      26.99563714
As      33.78242511       8.80284475      24.72907812
As       6.21144419       1.32703127       6.83640973
As      15.24450095      31.13942867       8.30493664
As      14.84630406       6.91118857      35.90042746
As      19.06582786      19.43495829       6.56888638
As       8.89559036      34.62910422      14.82879300
As      25.63087413       3.23543426       3.72750624
As      23.86304968      30.44530295      14.07200816
As      29.77703046      10.43291251      16.58516532
As      28.61322658      27.62497040      16.44338411
As      17.38715447       3.51546286      16.14464699
As       8.21709586      33.51038435       6.77470343
As      11.34829475      22.76206231      28.06441850
As      19.42259316      11.21656649      14.40921605
As       1.83511144      33.22063395      16.12962056
As      34.87857005      18.27880442       1.48853054
As      16.29092373      17.02425971      21.64394160
As      26.50368674       6.41634448      28.83375500
As       9.76361904      19.42143441       2.37897372
As      32.11526227      34.46395671      18.23386894
As       5.55327097      13.04329915      22.20025493
As       4.77182171      16.91480278      34.18492462
As      15.14234858      16.71708401       4.11033195
As       0.62184250      24.86811966      24.93843393
As      23.51786093      26.96049598      37.14987074
As       8.32239752       2.27852165      10.07828011
As      19.99531043       7.59626206      12.66967759
As       6.74716335      15.40231495      34.43024096
As       3.37688568      19.24774972      14.80242738
As      15.40522950      23.48325109      30.77654788
As      26.13638263      30.45203706      16.29746863
As      24.34761911      30.39139001      24.03299410
As      18.86279733      12.38147333       9.39832118
As       6.17778327      36.82223290      33.63245887
As      23.44725539      27.39167071      15.48239564
As      11.87589425       6.37973199       1.53598922
As      15.04246328      19.80833682       9.04623236
As       0.66957336      17.31332398       0.19962048
As      34.57041584      11.86251124      31.75596238
As       6.93483307       0.97126086      12.91977426
As      20.45180277      28.89511016      35.86341551
As      22.40122764       7.34796421       3.47571128
As      17.96542751      31.84564830      11.06068810
As      27.91948908      28.75426313      21.73236726
As      31.75203151      28.15680413       7.81140805
As       4.53066217       4.95236805      25.55689681
As      14.90669236      11.40281959      24.65556674
As      19.89061333       1.52927312      31.61791025
As      36.36273926      11.61047107      26.13747300
As      25.00602306      35.63048929       9.18135636
As      35.74619343       1.60111350       0.34842370
As      23.72460134       4.02915220       8.75493612
As      24.42789184      10.41382612      29.83741561
As      11.44743567      26.34755366      24.86494693
As       3.07030081       8.00377255      14.19459659
As      30.54433350      31.68131448      35.19098549
As      35.41194409      16.13709743       2.59921242
As      12.92383236       9.57518280      33.38501256
As      10.70481785      25.98181293      32.58693173
As      33.75285906      36.85708765       1.97899114
As      23.97701489       6.01909216      19.02358258
As      10.51770547      28.15806553       2.71386587
As      23.30880854      34.48613113      27.84332437
As      32.78821097      14.51524970       4.20047302
As      37.23693982       9.29030589       4.22950370
As      16.57651940      24.88350479       7.13463495
As       1.11446393      14.31087874      10.79545472
As      27.56651121      27.08250761      19.85013597
As      33.54659304      11.85008653      23.74930066
As      23.02337981      32.89219798       8.50526879
As       0.97999816       3.77153958      19.06917029
As      13.79007479      32.05554586      14.23919188
As      12.06928052      11.21287704      10.09652364
As      29.55072990      29.41330910       2.72723054
As      37.68850213      21.74057856       0.14594514
As       8.76677132      15.90548728      20.46249472
As       4.26670498      10.44517541      24.52075785
As       9.60866327       9.49082984      33.60307098
As      18.41781433       2.61049596      21.38433792
As      29.46390869       8.16071212      31.27136326
As      33.49127993      13.69736501      15.18665789
As      11.38334928      16.07219557      30.73648454
As      26.04748374      27.63878499      32.69722729
As       7.61281722      24.62915616       5.40292413
As      36.40465447      15.50265020      31.82988134
As      32.63542925       4.68964712      24.79763877
As      22.24738723      12.86932846      11.20299692
As       4.45172246       5.14000631      23.00405240
As       2.22275984      11.62454221      34.06245173
As      12.63639086      20.57338915      25.20772634
As      10.81756614       6.97478126      18.23869944
As       8.61107745      22.42670670      37.55781262
As      24.33468883      33.81633528      20.81360341
As      10.52830656       1.64872035       3.38316593
As      19.96283402       4.44682571      10.53748123
As       7.75569516      35.40660386      12.82831864
As      32.26770188      23.17402503      15.89171190
As      24.72917322      26.82130409      30.64548121
As       2.26158745      30.61833124      30.88586906
As      25.55485847      28.90704501      29.32597656
As      32.27382400      29.07279398      29.62825309
As       6.05275870      32.31593377      14.16029211
As      18.86609572       8.30899325      31.15354639
As      21.65864544      35.22797533      29.74392318
As      16.87797942       6.92835021      34.10625053
As      33.93366826      14.29266240      23.45009610
As      22.79371743      29.44011327       4.83191212
As      11.57539395      30.66825527      35.80675241
As      35.03889158      37.34061355      19.43672404
As      26.77980417      32.71692283       8.09075333
As      21.89154949       8.46331980      28.51324442
As      14.16759124       6.27158103      26.96828183
As      11.94076145      35.55352008      16.55172990
As      21.33233622      35.49373170       1.54303060
As      19.28499759       9.19066593      19.43701257
As      23.57817005       5.42854318       1.66231826
As      34.62665526       5.51692866       8.19009267
As      22.22237141      36.73601326      13.80233162
As      31.29170152      11.39503272      20.62764764
As       4.47331779      14.55185783       6.20934018
As       3.71880566      19.61530545      24.90796130
As      25.69302781      27.06887570      36.05964216
As      17.35852523       8.26471452      25.02499514
As      34.52570478       5.39878729      18.43578314
As      10.35676989       9.61306209      10.93868009
As       0.11565142      24.99855379      10.58761496
As      27.01671290       8.75879179      31.67067376
As      10.00802175      35.45448134       2.27199927
As      35.32475494      14.53553615       6.45828429
As      31.63173612      19.65587015      12.25336218
As      31.57455233      16.85660815      15.98054641
As       9.91028625       0.43744754      21.17484971
As      30.14803207       3.84376464      25.07137499
As      21.47671436      21.65719628      30.53331214
As       0.69520552      31.53644925      22.57284518
As      17.35538527      27.96907499       6.11975022
As      23.03995729      20.17357623       5.82388209
As      17.83154540      34.78569007      19.71520772
As       3.85833218      36.17853741      17.67739836
As      27.56794403       3.33427934      13.67383092
As      21.61624097      34.87245301       5.55294559
As       5.41394872      24.49427293      34.51588907
As      29.90293236      10.46577162      28.05677879
As       2.76303935       6.98906772      31.57075884
As      25.27669916      10.65792045      36.37566537
As      13.32617914      15.83592504      35.94670914
As       5.97851291      16.60142823      13.87738978
As      27.72704401      27.33136007      27.12086050
As      23.10304870       4.09574780      16.21041447
As      11.99528454      28.99771608       0.85700474
As      12.46517757      14.25608514       3.37251117
As      22.15890802      15.74360331       0.91821616
As      19.45031364       9.78127616      34.66997197
As       0.80893576      16.72513052      21.29002283
As      36.02140265      13.37875312      37.52993665
As       1.72677061       2.88009720      26.11202643
As       8.10218613      32.15325180      24.36933149
As      24.34611062      19.47628105      17.26506119
As      10.08863045       9.63693685      22.83741106
As      30.00304948      27.36292601      26.29319238
As      19.43873153      35.13683990      37.69641273
As      22.01572094      22.44501282       5.72963784
As      36.24577255      30.24647205       8.81329515
As       1.01505461      37.60592649       0.21812262
As      19.53483047      34.43788510      12.95914469
As      23.82328404      27.91110150      17.84957719
As      11.38837981      32.50773939      21.73085360
As      34.54736763      27.08943387      30.56285186
As       0.18878801      17.81650064      11.92645998
As       6.64071181      25.79969519      37.62486846
As       6.92839886       9.46772254      36.46089625
As      19.17928898      24.68796774      29.70184209
As      28.07330956      24.29991580      17.31585782
As       8.94164834      25.57816611      11.93295146
As      31.56373857      28.36871446      23.38375618
As      36.99241042       2.55611832      25.36408715
As       8.58762304      32.16123222      14.80897721
As       3.39842324      36.41944048       0.48011401
As      14.61341284      19.92857048       1.01712087
As      24.29347278      21.63810305      23.91539758
As      33.35798965      20.88058366      34.96743087
As      28.43174952       7.41956725      21.41071133
As       6.09133546      26.97957842      29.41990888
As      33.82316983       3.76941983      33.72766587
As      35.82432918      12.05096318       2.00342770
As      12.42514966      35.86270583      22.45113190
As      18.34513951      15.85642934       2.16598750
As      17.64001009      26.58838754       0.47730013
As       4.62598266       9.86465842      14.40929091
As      11.45064471      16.97893308      24.82618338
As      15.09671904      14.63137665      15.57668170
As      14.91003885      37.02159635       6.50466853
As       3.79494019      24.98769816       4.61890734
As      22.55396068      35.03974213       9.48471875
As       7.88775320      14.18928694      11.91283963
As      36.03529756      22.14834063      15.11144866
As      20.36218257      20.85336690       8.10990620
As       6.41706058      11.91494133      35.82050409
As      30.07189403       4.68289991      11.29911538
As      10.31305285      15.40349103       6.23906687
As      36.55458385      21.70364385       9.16155880
As       6.34098675       7.38793953      17.47069893
As       0.54477409      22.96526536      29.92233017
As       1.14027619      27.65904003       3.06656915
As      13.79596552      35.47509133      30.70148395
As       2.00781274       8.46470127      26.29070479
As      18.66559352      14.05683966       7.55757315
As       0.53868623       0.32151713      18.56744707
As      26.55208036      19.58296508       6.19271060
As       2.02896853       0.30403955      15.30646935
As      30.81920478       3.58527466      15.09558097
As      31.50326834      36.55072929      19.20475362
As      33.55873548       7.48096495      37.60114767
As       5.38129561      34.41295920      24.56277505
As      10.20767760      29.25331756      25.77546412
As       7.18578190      14.73079641       1.21059058
As      16.36021882      10.63630707      20.31966760
As      20.17708409      35.73383767      14.90959982
As      19.55466086       9.36351456       0.66311719
As       0.34392720      12.92095535      27.47906475
As       0.59765227      28.86592353       9.69683471
As      18.39417729      31.55188223       5.57632957
As       7.44158599      12.57773970       5.50168608
As      35.45692948      27.85157106       2.73710850
As      17.81411528      19.90210559       3.08259851
As      26.34764328      25.62389906       0.39164849
As      29.74096066      25.38024531      14.00155239
As       3.36081468      14.97655245       1.75480088
As      34.86078220       7.37704975      21.16702434
As      28.95892744       5.70140488      31.74855944
As       4.93356116      27.14234467       7.45255005
As       3.45314773      16.99247505      15.71060979
As       9.29381672       9.55365015      37.39063420
As      19.55431674      20.52158484      23.29469758
As       7.58737989       6.57568755       4.45816807
As      19.42308488       4.64536294      22.56428917
As      19.85380491      13.77347573      11.16005148
As      33.50169445      13.39702067      37.54541040
As      24.32245519      16.69714254       1.70506658
As      15.93112927      13.96191515      19.22798965
As      28.96568846       3.53604659      17.73091569
As      26.13436565       2.57415935       6.09414260
As      35.99761554       8.04021467       6.17921521
As      18.66157714      10.42210065      28.98130196
As      22.65198067      13.80644451       2.50918837
As      35.34841524       9.26946531      14.21840568
As      28.97992192       7.31715615      28.84469040
As      26.99141817      36.24507076      12.05943887
As       3.60998478      33.63186346      33.04240721
As       5.82304218       5.81359153      28.81591700
As      17.59863173      23.92587480      13.63802069
As      33.23919410       4.09318777      31.29264254
As      26.96600134      10.18240481      29.59340950
As      18.41483633      30.73333798      28.15977311
As       0.55311236      10.71869350      30.58495028
As      36.44974504      14.38226637      23.32306006
As      22.72581178      23.77638122      30.13442524
As      11.90430108      33.66423156      13.78749766
As       6.93991629      25.58826001      23.82055402
As       4.43688730      20.09945281      16.82343962
As      37.28737284      30.22171926      35.74461461
As      30.08730179       3.75014859      21.33014251
As      30.28834710      24.85941260      18.21110611
As       3.84795118      12.04054925      15.18551046
As       4.11729448       6.15156561       5.64035211
As      35.00542922      35.20695046      12.59329287
As      29.10379186       9.37024732      34.56706874
As      32.82608341      24.81625453      34.79313449
As      12.07847691      29.30655595      23.20883805
As      11.61794707      28.37218272      20.81449159
As      36.79445312      27.29400415      10.88615894
As       3.03828288       6.73974662      17.89459337
As      19.26082250      15.29912704      33.00875124
As      30.10345509      29.84768939      26.76654391
As      22.79957125      15.04001286      32.69064760
As       5.47829726      25.66870675      27.42040285
As      17.31737662      18.88664739       9.78773410
As      22.92443923      34.76948502      17.64492405
As       2.88453242      19.23945712       9.52210512
As      34.20605881      18.83802464      10.30126200
As      32.14425929      18.17353525      18.04065472
As       8.04439470      34.50791372       3.67150201
As      13.36836172      28.26575871      32.38933324
As      11.86078175      24.27261065      36.82271796
As      31.53565675      13.15847439      13.98911583
As      13.88798092      10.30300177      11.92330331
As      31.48019733      16.99908355       0.61736035
As      28.89762146      19.75860935      23.11547162
As      22.94514711      30.20942266       2.49695323
As      20.20071488       5.54231005      25.91514194
As       5.85258545      30.32325247      28.57823962
As       6.42354444       7.14561115      30.87947926
As      35.85353535      31.07438584       4.93618073
As      15.02917431      12.33628372      34.49254786
As      35.80521330      16.22848832      35.71409565
As      31.15280791      18.13072320      30.49365212
As      35.91645738      19.40028343       8.54046517
As       1.91790260       5.79518084       2.81499812
As      11.71835802      10.74817448      16.36462950
As       6.72241037       9.22744313      15.77146943
As      23.56881253      20.86272687       9.66212824
As      36.71187011      10.65436600      32.54712828
As      11.60462705      32.67130743       8.00583507
As      10.80571494       5.77456525      11.06796396
As       6.33924341       0.52420969      19.05129226
As      10.93422900      18.53008913       0.31770808
As      32.78040803      22.77421573      28.11866171
As      33.74653350      11.02380562      28.82208637
As       7.00108463      19.64287413      29.88691821
As      31.88620515      34.47911773      37.47843987
As      30.01204359      24.04754209      20.52079000
As      22.84456831       7.87474678      16.04547444
As      27.85626609      31.16855183      32.02017398
As      11.71551603      37.07890081      13.86473728
As      21.68710117      28.11557051      22.97373074
As      34.90871415      21.76507593      31.71374335
As      23.66958198       9.46510548      24.28043105
As      16.33568426      33.07902854      24.07867826
As      22.17451698      26.54344014      12.06144181
As      37.58051265      29.97308218      16.10245905
As      33.68121748      35.82887927      28.82308987
As      20.48157012      29.83834838      16.32208152
As      27.30796077      31.43119682      29.54833493
As      30.32764619      35.45458659      34.19618870
As      33.28527892      15.58397497      32.65853122
As      21.26890198      18.17004238      18.32522906
As      28.42622328      37.05787377      35.05370928
As       6.32151144      11.07719200       1.86230676
As      31.45373242       4.27508432      34.81761854
As      12.00363254       7.91366978      11.56399853
As       9.55285620      14.47064770      30.55202179
As      22.61087103       5.86071358      14.47447443
As      27.09155086      30.97393911      21.04260031
As       3.70052128      30.27307904       1.99383342
As       9.31150905      17.98637169      18.87359574
As      20.81170166      27.03288228      32.22190641
As       4.38486663      37.47293352      28.94452585
As      18.57719820      20.48617580      30.14829983
As      29.11702812      11.93468208      32.19748977
As      22.31921874      36.39051571      26.49403441
As       0.88391615       6.42775296      12.09958317
As      21.53294386      10.40099151      23.08776909
As      30.88018579      10.22216828       4.05099843
As      27.40639203      21.71030150      28.97575571
As       8.33026039      13.16638278      37.16733942
As       8.41756016      30.61674902      21.44580904
As      11.75933011       4.39003410      35.95155820
As      20.41477015      13.21863827      34.97923897
As       0.76671606      18.55261508       2.31531635
As       4.12399417      20.92154069      34.58327390
As       7.99223907      17.46831492      26.19814745
As      11.24583947      31.86068847      19.26022114
As      15.44897169       9.89372128      33.83058655
As      31.61093351       7.95623306      25.48618423
As      32.55114493       9.76060548      18.99051130
As      28.44661467      16.80356814      35.77657847
As      37.69044213      18.68856863      15.75245485
As      11.05268451      18.90494066      27.49598044
As      20.87430554      15.66986930      34.89919336
As      23.47590152      13.62114961      28.97526470
As      20.82627059      29.38182969       1.71284225
As       3.52632871      12.89249127       3.07487209
As      36.82066493      21.07930421      18.76593639
As      22.11460843      20.40612934      17.34500925
As      22.63952004      25.71990215       6.59590320
As      28.79572098      28.10463644      29.78906742
As       5.61383646      28.89306178      15.52543295
As      16.66146537      37.03826680      26.28343336
As      21.82710542       9.22946635      32.11295844
As       0.22915607      28.94434524      24.98444908
As      33.20232007      31.12524254      16.85254829
As      14.52351686      22.17333240      34.41991307
As      18.43970926      26.13875386      12.56093555
As       6.92449679      28.81275249       2.76905201
As       0.95816988      23.12273365      27.53151656
As      13.74480619      18.22487138      32.79158895
As       1.07893606      30.61859266      18.99287886
As      19.97834226       6.98110426       6.52189863
As      28.28182078      29.60043715      37.63076382
As      24.84614982      25.89295250      27.71198257
As      30.13944625      17.14518884       2.75570319
As      35.89524862       1.23192797      27.10098708
As      27.27744714      10.74945469      33.24297464
As       4.68164729      24.43834416      36.89661731
As      25.14010773      32.86890260      11.57710457
As       6.35447134      16.43434637      20.68534346
As      13.77609527       3.42372913       7.90948609
As      32.27455567      27.19594003      16.26328604
As      33.57987046      16.43300443      19.09358643
As      29.87929239      20.21203265       6.48364113
As       9.63661609      21.39576935       8.79618576
As      14.50748818      36.61907011      18.91449463
As      10.73200829      22.17365975       5.32998101
As       4.30707808      21.03984139      21.62806320
As       8.88385567       5.47579978      29.77281893
As       8.64576363      20.74865695       5.12548224
As      13.95039856      32.35071264      23.59613067
As      30.51656719      36.04268443      27.76893569
As      29.84190177      18.18424965      13.33335048
As      19.79482074      27.29668898      21.63761705
As       1.97543593       5.04033741      24.87243788
As      25.18016807       9.32438682       9.34173784
As       2.25214868      15.39044148      14.14611135
As      25.82499727       2.58824451      29.62569404
As      13.70120449      16.12664000       6.10634387
As      20.26215722      20.09676981      26.64150700
As      27.51600368      12.59504331      30.33707869
As       0.40207036       7.24886689      19.82183411
As      11.28812706       5.41536120       3.78674902
As      33.86132288      21.68328136      12.52766905
As      28.49991931      15.81054698      16.71579964
As      23.77949991      23.30926712       4.11104813
As      37.57860177      17.67197235       9.52330106
As       4.45502029      30.02487945       9.82055539
As      20.33012858       9.86482720      16.28812926
As      12.93229668      15.20207795      32.72894087
As      22.08869899      12.32061691      36.58393876
As      10.11571899      33.83718497      36.50173540
As       0.24287824      10.54015857       1.72056088
As       5.53018925      37.38849008      23.09058754
As      10.90901921      19.30090828      23.75730461
As      26.88555891       5.68149411      12.77737948
As      32.38552497      31.02272279      26.39775487
As      11.64388329      12.06718969      14.22876507
As       1.39627634      37.22225601       3.86779214
As      32.46336454      34.95808780      22.60006513
As      27.10361501      21.62222010      14.85683106
As      32.59301652      30.17015878      31.76583028
As      23.96458424      17.68100658       3.91161783
As      21.09821751      31.99219993      10.01200355
As      28.97979875      35.33098003      17.53524923
As      15.17403053       2.70516669      19.49644656
As      34.76661254      22.60462873       2.73729647
As       5.21010887      31.32647635      26.20481743
As      17.42355654      26.84725559      28.68127092
